NAME : XML100_1273_15
DIMENSION : 101
NB_CLUSTERS : 3
CLUSTERING_ALG : KMedoids
CLUSTERING_PARAMS : k(2)
CLUSTERS
1 0
2 3 5 9 11 12 13 14 15 21 23 26 27 28 32 39 40 46 48 53 59 61 62 63 68 70 73 75 81 82 84 86 88 93 94 98 100
3 1 2 4 6 7 8 10 16 17 18 19 20 22 24 25 29 30 31 33 34 35 36 37 38 41 42 43 44 45 47 49 50 51 52 54 55 56 57 58 60 64 65 66 67 69 71 72 74 76 77 78 79 80 83 85 87 89 90 91 92 95 96 97 99
EOF